GLPSOL--GLPK LP/MIP Solver 5.0
Parameter(s) specified in the command line:
 --lp ../modeles/5_489.lp --log 5_489.log
Reading problem data from '../modeles/5_489.lp'...
2466 rows, 4900 columns, 17140 non-zeros
2445 integer variables, all of which are binary
7377 lines were read
GLPK Integer Optimizer 5.0
2466 rows, 4900 columns, 17140 non-zeros
2445 integer variables, all of which are binary
Preprocessing...
2430 constraint coefficient(s) were reduced
2466 rows, 4895 columns, 17135 non-zeros
2445 integer variables, all of which are binary
Scaling...
 A: min|aij| =  1.673e-05  max|aij| =  4.000e+00  ratio =  2.391e+05
GM: min|aij| =  4.522e-02  max|aij| =  2.211e+01  ratio =  4.890e+02
EQ: min|aij| =  2.045e-03  max|aij| =  1.000e+00  ratio =  4.890e+02
2N: min|aij| =  1.953e-03  max|aij| =  1.775e+00  ratio =  9.090e+02
Constructing initial basis...
Size of triangular part is 2466
Solving LP relaxation...
GLPK Simplex Optimizer 5.0
2466 rows, 4895 columns, 17135 non-zeros
      0: obj =   1.000000000e+01 inf =   2.450e+01 (11)
    134: obj =   4.999602710e-01 inf =   0.000e+00 (0)
*   439: obj =  -2.236015059e+00 inf =   7.578e-16 (0)
OPTIMAL LP SOLUTION FOUND
Integer optimization begins...
Long-step dual simplex will be used
+   439: mip =     not found yet >=              -inf        (1; 0)
+  1838: mip =     not found yet >=  -2.236015059e+00        (1396; 0)
+  1847: >>>>>  -2.236015059e+00 >=  -2.236015059e+00   0.0% (1404; 0)
+  1847: mip =  -2.236015059e+00 >=     tree is empty   0.0% (0; 2807)
INTEGER OPTIMAL SOLUTION FOUND
Time used:   5.1 secs
Memory used: 7.3 Mb (7619035 bytes)
